NAME 
ROWS
 N  OBJ
 L  R0      
 L  R1      
 E  R2      
 E  R3      
 E  R4      
 E  R5      
 E  R6      
 E  R7      
 E  R8      
 E  R9      
 E  R10     
 E  R11     
 E  R12     
 E  R13     
 E  R14     
 E  R15     
 E  R16     
 E  R17     
 E  R18     
 E  R19     
 E  R20     
 E  R21     
COLUMNS
    MARKER    'MARKER'                 'INTORG'
    I0(5)     OBJ       -117
    I0(5)     R0        5
    I0(5)     R1        -177
    I0(5)     R2        13
    I0(5)     R7        10
    I0(5)     R21       1
    I1(9)     OBJ       -15
    I1(9)     R0        -12
    I1(9)     R1        -16
    I1(9)     R2        12
    I1(9)     R3        3
    I1(9)     R4        6
    I1(9)     R7        17
    I1(9)     R8        8
    I1(9)     R9        8
    I1(9)     R21       1
    I2(10)    OBJ       31
    I2(10)    R0        -5
    I2(10)    R1        55
    I2(10)    R2        15
    I2(10)    R3        6
    I2(10)    R4        12
    I2(10)    R5        3
    I2(10)    R6        3
    I2(10)    R7        13
    I2(10)    R9        19
    I2(10)    R21       1
    I3(10)    OBJ       -200
    I3(10)    R0        99
    I3(10)    R1        -9
    I3(10)    R2        17
    I3(10)    R3        7
    I3(10)    R5        8
    I3(10)    R6        6
    I3(10)    R7        5
    I3(10)    R8        1
    I3(10)    R9        2
    I3(10)    R21       1
    I4(7)     OBJ       -22
    I4(7)     R0        125
    I4(7)     R1        -131
    I4(7)     R5        10
    I4(7)     R6        7
    I4(7)     R7        1
    I4(7)     R8        11
    I4(7)     R21       1
    I5(8)     OBJ       -179
    I5(8)     R0        -45
    I5(8)     R1        -192
    I5(8)     R2        14
    I5(8)     R3        15
    I5(8)     R6        9
    I5(8)     R7        6
    I5(8)     R8        17
    I5(8)     R21       1
    I6(8)     OBJ       133
    I6(8)     R0        -191
    I6(8)     R1        -191
    I6(8)     R2        -1
    I6(8)     R3        6
    I6(8)     R4        19
    I6(8)     R7        14
    I6(8)     R8        9
    I6(8)     R21       1
    I7(9)     OBJ       96
    I7(9)     R0        152
    I7(9)     R1        70
    I7(9)     R2        4
    I7(9)     R3        10
    I7(9)     R4        19
    I7(9)     R5        15
    I7(9)     R6        7
    I7(9)     R9        19
    I7(9)     R21       1
    MARKER    'MARKER'                 'INTEND'
    C8(12)    OBJ       -9
    C8(12)    R0        -1
    C8(12)    R1        -3
    C8(12)    R2        10
    C8(12)    R3        11
    C8(12)    R4        18
    C8(12)    R5        4
    C8(12)    R11       16
    C8(12)    R12       1
    C8(12)    R15       4
    C8(12)    R16       9
    C8(12)    R17       4
    C8(12)    R19       1
    C9(13)    OBJ       9
    C9(13)    R0        5
    C9(13)    R3        19
    C9(13)    R5        6
    C9(13)    R7        7
    C9(13)    R8        17
    C9(13)    R9        6
    C9(13)    R10       12
    C9(13)    R12       4
    C9(13)    R13       12
    C9(13)    R16       17
    C9(13)    R18       6
    C9(13)    R19       15
    C9(13)    R20       9
    C10(14)   OBJ       8
    C10(14)   R0        9
    C10(14)   R1        -5
    C10(14)   R2        2
    C10(14)   R4        -1
    C10(14)   R6        8
    C10(14)   R7        6
    C10(14)   R9        8
    C10(14)   R10       12
    C10(14)   R12       14
    C10(14)   R13       15
    C10(14)   R15       -1
    C10(14)   R17       17
    C10(14)   R18       10
    C10(14)   R19       6
    C11(12)   OBJ       -5
    C11(12)   R0        -1
    C11(12)   R1        4
    C11(12)   R3        9
    C11(12)   R4        17
    C11(12)   R6        4
    C11(12)   R7        18
    C11(12)   R8        2
    C11(12)   R9        1
    C11(12)   R11       12
    C11(12)   R12       18
    C11(12)   R13       9
    C11(12)   R15       5
    C12(12)   OBJ       -3
    C12(12)   R0        -2
    C12(12)   R1        4
    C12(12)   R3        12
    C12(12)   R5        1
    C12(12)   R7        4
    C12(12)   R8        2
    C12(12)   R9        9
    C12(12)   R10       5
    C12(12)   R11       8
    C12(12)   R17       5
    C12(12)   R18       7
    C12(12)   R19       11
    C13(17)   OBJ       -6
    C13(17)   R0        9
    C13(17)   R1        2
    C13(17)   R2        1
    C13(17)   R3        13
    C13(17)   R5        8
    C13(17)   R7        1
    C13(17)   R9        13
    C13(17)   R10       9
    C13(17)   R11       6
    C13(17)   R12       19
    C13(17)   R13       17
    C13(17)   R14       4
    C13(17)   R15       11
    C13(17)   R16       11
    C13(17)   R17       13
    C13(17)   R19       5
    C13(17)   R20       -1
    C14(15)   OBJ       4
    C14(15)   R0        -2
    C14(15)   R1        1
    C14(15)   R3        12
    C14(15)   R6        12
    C14(15)   R7        18
    C14(15)   R8        12
    C14(15)   R9        7
    C14(15)   R11       8
    C14(15)   R12       10
    C14(15)   R13       17
    C14(15)   R15       10
    C14(15)   R16       7
    C14(15)   R17       18
    C14(15)   R18       14
    C14(15)   R19       -1
    C15(15)   OBJ       -6
    C15(15)   R0        -5
    C15(15)   R1        9
    C15(15)   R3        8
    C15(15)   R4        6
    C15(15)   R5        13
    C15(15)   R8        2
    C15(15)   R9        6
    C15(15)   R10       12
    C15(15)   R11       2
    C15(15)   R12       9
    C15(15)   R13       12
    C15(15)   R14       18
    C15(15)   R18       18
    C15(15)   R19       9
    C15(15)   R20       19
    C16(17)   OBJ       -5
    C16(17)   R0        3
    C16(17)   R1        1
    C16(17)   R2        5
    C16(17)   R3        15
    C16(17)   R4        11
    C16(17)   R5        17
    C16(17)   R6        17
    C16(17)   R7        12
    C16(17)   R10       8
    C16(17)   R11       4
    C16(17)   R12       8
    C16(17)   R13       1
    C16(17)   R14       19
    C16(17)   R15       7
    C16(17)   R16       -1
    C16(17)   R17       7
    C16(17)   R18       9
    C17(17)   OBJ       -3
    C17(17)   R0        -8
    C17(17)   R1        4
    C17(17)   R2        15
    C17(17)   R3        14
    C17(17)   R4        8
    C17(17)   R5        12
    C17(17)   R7        13
    C17(17)   R8        5
    C17(17)   R9        8
    C17(17)   R11       10
    C17(17)   R13       19
    C17(17)   R14       19
    C17(17)   R15       2
    C17(17)   R17       5
    C17(17)   R18       16
    C17(17)   R19       16
    C17(17)   R20       -1
    C18(14)   OBJ       3
    C18(14)   R0        -10
    C18(14)   R1        7
    C18(14)   R2        -1
    C18(14)   R3        14
    C18(14)   R4        5
    C18(14)   R6        2
    C18(14)   R7        15
    C18(14)   R11       15
    C18(14)   R12       13
    C18(14)   R15       9
    C18(14)   R17       13
    C18(14)   R18       16
    C18(14)   R19       7
    C18(14)   R20       14
    C19(15)   OBJ       7
    C19(15)   R0        4
    C19(15)   R1        9
    C19(15)   R2        14
    C19(15)   R4        3
    C19(15)   R5        6
    C19(15)   R6        10
    C19(15)   R7        9
    C19(15)   R8        12
    C19(15)   R10       1
    C19(15)   R12       7
    C19(15)   R14       16
    C19(15)   R15       4
    C19(15)   R17       16
    C19(15)   R18       16
    C19(15)   R20       8
    C20(1)    R2        1
    C21(1)    R3        1
    C22(1)    R4        1
    C23(1)    R5        1
    C24(1)    R6        1
    C25(1)    R7        1
    C26(1)    R8        1
    C27(1)    R9        1
    C28(1)    R10       1
    C29(1)    R11       1
    C30(1)    R12       1
    C31(1)    R13       1
    C32(1)    R14       1
    C33(1)    R15       1
    C34(1)    R16       1
    C35(1)    R17       1
    C36(1)    R18       1
    C37(1)    R19       1
    C38(1)    R20       1
    C39(1)    R21       1
RHS
    RHS1      R0        4.7349056603773590e+01
    RHS1      R1        -2.0759433962264151e+02
    RHS1      R2        79
    RHS1      R3        69
    RHS1      R4        79
    RHS1      R5        84
    RHS1      R6        65
    RHS1      R7        93
    RHS1      R8        96
    RHS1      R9        92
    RHS1      R10       74
    RHS1      R11       63
    RHS1      R12       69
    RHS1      R13       53
    RHS1      R14       66
    RHS1      R15       63
    RHS1      R16       85
    RHS1      R17       76
    RHS1      R18       72
    RHS1      R19       51
    RHS1      R20       80
    RHS1      R21       2
BOUNDS
 UP BND1      I0(5)     1
 UP BND1      I1(9)     1
 UP BND1      I2(10)    1
 UP BND1      I3(10)    1
 UP BND1      I4(7)     1
 UP BND1      I5(8)     1
 UP BND1      I6(8)     1
 UP BND1      I7(9)     1
ENDATA
